
Gurobi 9.0.2 (linux64, gurobi_cl) logging started Tue Feb  9 16:18:00 2021

Set parameter LogFile to value gurobi.log

Gurobi 9.0.2 (linux64, Python) logging started Tue Feb  9 16:18:17 2021

Set parameter LogFile to value gurobi.log
